NAME : X-n384-k52
COMMENT : "Generated by Uchoa, Pecin, Pessoa, Poggi, Subramanian, and Vidal (2013)"
TYPE : CVRP
DIMENSION : 384
EDGE_WEIGHT_TYPE : EUC_2D
EDGE_WEIGHT_FORMAT : 
CAPACITY : 564
DISTANCE : 1.79769e+308
SERVICE_TIME : 0
NODE_COORD_SECTION
1 51 570
2 691 985
3 66 119
4 502 415
5 434 289
6 427 584
7 342 576
8 790 87
9 312 475
10 908 531
11 840 566
12 863 232
13 284 833
14 515 175
15 9 243
16 768 209
17 777 582
18 84 508
19 380 523
20 255 267
21 544 961
22 408 661
23 57 588
24 278 44
25 168 722
26 726 406
27 223 385
28 495 70
29 560 632
30 235 655
31 643 127
32 765 267
33 459 976
34 585 962
35 154 796
36 650 444
37 931 52
38 377 19
39 178 633
40 917 803
41 871 677
42 667 164
43 208 651
44 35 437
45 503 680
46 462 870
47 322 123
48 677 829
49 878 407
50 223 251
51 671 94
52 218 351
53 375 220
54 367 567
55 986 869
56 236 769
57 202 998
58 761 712
59 75 520
60 14 737
61 895 632
62 224 725
63 328 387
64 36 300
65 817 531
66 31 283
67 209 574
68 490 395
69 659 121
70 410 207
71 761 450
72 768 348
73 943 340
74 39 955
75 106 150
76 963 376
77 516 144
78 554 127
79 944 75
80 373 88
81 54 5
82 39 965
83 51 392
84 999 983
85 563 410
86 536 848
87 786 533
88 42 948
89 875 361
90 535 800
91 581 696
92 413 763
93 148 875
94 483 983
95 449 343
96 219 600
97 374 487
98 279 200
99 479 705
100 273 519
101 869 745
102 776 395
103 341 275
104 593 973
105 778 716
106 277 152
107 782 314
108 896 301
109 573 478
110 42 198
111 124 348
112 105 240
113 557 630
114 782 897
115 774 669
116 847 411
117 357 782
118 161 755
119 709 832
120 948 830
121 434 60
122 298 921
123 990 161
124 942 399
125 571 611
126 262 680
127 253 246
128 563 416
129 382 91
130 579 962
131 215 439
132 248 65
133 811 175
134 725 834
135 169 359
136 641 926
137 625 52
138 629 8
139 486 394
140 83 462
141 924 930
142 175 333
143 115 192
144 123 534
145 634 528
146 702 299
147 86 172
148 11 889
149 8 583
150 495 538
151 3 14
152 201 666
153 131 348
154 300 323
155 551 167
156 851 897
157 412 90
158 813 64
159 993 344
160 317 999
161 90 595
162 180 817
163 667 24
164 666 285
165 733 661
166 506 774
167 493 953
168 162 458
169 735 602
170 345 771
171 468 639
172 776 107
173 819 750
174 204 781
175 165 858
176 678 218
177 536 950
178 47 421
179 239 153
180 744 664
181 766 64
182 788 448
183 920 330
184 54 707
185 216 471
186 793 257
187 517 964
188 389 503
189 923 563
190 383 388
191 917 890
192 734 599
193 749 248
194 333 17
195 84 713
196 776 428
197 888 452
198 371 465
199 565 304
200 408 820
201 357 613
202 675 690
203 979 298
204 222 489
205 507 187
206 379 793
207 526 595
208 17 545
209 513 146
210 70 513
211 484 862
212 294 987
213 880 478
214 287 733
215 709 30
216 755 201
217 939 682
218 23 975
219 135 799
220 808 471
221 352 279
222 224 900
223 275 130
224 60 465
225 608 301
226 288 813
227 718 755
228 829 744
229 523 799
230 569 157
231 634 665
232 627 260
233 743 336
234 870 16
235 267 623
236 675 856
237 239 494
238 950 618
239 445 653
240 394 763
241 816 368
242 19 825
243 68 548
244 912 106
245 600 71
246 245 644
247 620 364
248 555 400
249 549 230
250 243 724
251 657 925
252 355 48
253 951 488
254 586 851
255 318 318
256 549 848
257 917 3
258 295 453
259 818 398
260 73 482
261 891 952
262 349 100
263 950 284
264 69 29
265 140 20
266 178 1
267 585 862
268 381 457
269 266 918
270 164 506
271 174 282
272 56 123
273 693 864
274 146 606
275 244 461
276 846 275
277 176 95
278 912 431
279 903 582
280 703 553
281 297 364
282 703 755
283 332 591
284 283 487
285 968 440
286 718 490
287 295 702
288 449 997
289 926 605
290 604 188
291 632 895
292 761 894
293 239 159
294 963 544
295 762 412
296 986 378
297 802 918
298 851 893
299 180 267
300 593 544
301 837 710
302 276 708
303 963 733
304 255 875
305 396 884
306 699 106
307 261 853
308 348 742
309 860 800
310 535 344
311 808 933
312 450 911
313 433 336
314 652 319
315 411 46
316 842 35
317 654 385
318 871 67
319 457 532
320 9 162
321 886 356
322 464 267
323 413 493
324 140 227
325 819 673
326 660 739
327 322 299
328 626 556
329 975 276
330 138 941
331 304 86
332 560 367
333 201 120
334 532 473
335 60 255
336 240 267
337 174 678
338 929 577
339 369 972
340 668 756
341 899 435
342 367 634
343 585 668
344 45 722
345 207 394
346 340 665
347 142 543
348 279 945
349 259 574
350 293 833
351 54 58
352 481 595
353 44 507
354 125 942
355 410 444
356 462 734
357 881 743
358 690 935
359 879 195
360 239 813
361 911 347
362 289 397
363 206 571
364 532 174
365 610 399
366 184 52
367 719 98
368 261 552
369 277 497
370 85 267
371 818 67
372 54 568
373 545 251
374 657 549
375 484 37
376 739 237
377 868 790
378 17 42
379 778 328
380 848 464
381 33 255
382 237 37
383 335 531
384 113 544
PICKUP_AND_DELIVERY_SECTION
1 0 0 0 0 0 0
2 0 0 0 0 0 83
3 0 0 0 0 65 0
4 0 0 0 0 0 92
5 0 0 0 0 73 0
6 0 0 0 0 0 94
7 0 0 0 0 100 0
8 0 0 0 0 0 99
9 0 0 0 0 83 0
10 0 0 0 0 0 84
11 0 0 0 0 81 0
12 0 0 0 0 0 65
13 0 0 0 0 69 0
14 0 0 0 0 0 84
15 0 0 0 0 67 0
16 0 0 0 0 0 53
17 0 0 0 0 70 0
18 0 0 0 0 0 93
19 0 0 0 0 69 0
20 0 0 0 0 0 78
21 0 0 0 0 75 0
22 0 0 0 0 0 56
23 0 0 0 0 99 0
24 0 0 0 0 0 88
25 0 0 0 0 61 0
26 0 0 0 0 0 65
27 0 0 0 0 90 0
28 0 0 0 0 0 74
29 0 0 0 0 85 0
30 0 0 0 0 0 59
31 0 0 0 0 76 0
32 0 0 0 0 0 79
33 0 0 0 0 99 0
34 0 0 0 0 0 98
35 0 0 0 0 80 0
36 0 0 0 0 0 71
37 0 0 0 0 71 0
38 0 0 0 0 0 93
39 0 0 0 0 69 0
40 0 0 0 0 0 88
41 0 0 0 0 71 0
42 0 0 0 0 0 52
43 0 0 0 0 75 0
44 0 0 0 0 0 83
45 0 0 0 0 67 0
46 0 0 0 0 0 88
47 0 0 0 0 64 0
48 0 0 0 0 0 89
49 0 0 0 0 86 0
50 0 0 0 0 0 84
51 0 0 0 0 89 0
52 0 0 0 0 0 97
53 0 0 0 0 85 0
54 0 0 0 0 0 78
55 0 0 0 0 83 0
56 0 0 0 0 0 90
57 0 0 0 0 93 0
58 0 0 0 0 0 61
59 0 0 0 0 84 0
60 0 0 0 0 0 98
61 0 0 0 0 97 0
62 0 0 0 0 0 78
63 0 0 0 0 60 0
64 0 0 0 0 0 58
65 0 0 0 0 63 0
66 0 0 0 0 0 99
67 0 0 0 0 50 0
68 0 0 0 0 0 93
69 0 0 0 0 53 0
70 0 0 0 0 0 52
71 0 0 0 0 70 0
72 0 0 0 0 0 97
73 0 0 0 0 63 0
74 0 0 0 0 0 72
75 0 0 0 0 77 0
76 0 0 0 0 0 88
77 0 0 0 0 66 0
78 0 0 0 0 0 100
79 0 0 0 0 50 0
80 0 0 0 0 0 69
81 0 0 0 0 78 0
82 0 0 0 0 0 53
83 0 0 0 0 81 0
84 0 0 0 0 0 59
85 0 0 0 0 77 0
86 0 0 0 0 0 67
87 0 0 0 0 77 0
88 0 0 0 0 0 74
89 0 0 0 0 88 0
90 0 0 0 0 0 78
91 0 0 0 0 78 0
92 0 0 0 0 0 84
93 0 0 0 0 83 0
94 0 0 0 0 0 86
95 0 0 0 0 88 0
96 0 0 0 0 0 71
97 0 0 0 0 90 0
98 0 0 0 0 0 73
99 0 0 0 0 60 0
100 0 0 0 0 0 59
101 0 0 0 0 65 0
102 0 0 0 0 0 87
103 0 0 0 0 59 0
104 0 0 0 0 0 51
105 0 0 0 0 79 0
106 0 0 0 0 0 83
107 0 0 0 0 71 0
108 0 0 0 0 0 81
109 0 0 0 0 63 0
110 0 0 0 0 0 83
111 0 0 0 0 84 0
112 0 0 0 0 0 71
113 0 0 0 0 69 0
114 0 0 0 0 0 93
115 0 0 0 0 80 0
116 0 0 0 0 0 67
117 0 0 0 0 95 0
118 0 0 0 0 0 88
119 0 0 0 0 89 0
120 0 0 0 0 0 68
121 0 0 0 0 67 0
122 0 0 0 0 0 54
123 0 0 0 0 54 0
124 0 0 0 0 0 84
125 0 0 0 0 88 0
126 0 0 0 0 0 98
127 0 0 0 0 66 0
128 0 0 0 0 0 94
129 0 0 0 0 100 0
130 0 0 0 0 0 61
131 0 0 0 0 93 0
132 0 0 0 0 0 71
133 0 0 0 0 51 0
134 0 0 0 0 0 59
135 0 0 0 0 96 0
136 0 0 0 0 0 79
137 0 0 0 0 90 0
138 0 0 0 0 0 73
139 0 0 0 0 90 0
140 0 0 0 0 0 64
141 0 0 0 0 51 0
142 0 0 0 0 0 51
143 0 0 0 0 72 0
144 0 0 0 0 0 71
145 0 0 0 0 78 0
146 0 0 0 0 0 90
147 0 0 0 0 66 0
148 0 0 0 0 0 71
149 0 0 0 0 86 0
150 0 0 0 0 0 54
151 0 0 0 0 76 0
152 0 0 0 0 0 99
153 0 0 0 0 50 0
154 0 0 0 0 0 80
155 0 0 0 0 98 0
156 0 0 0 0 0 50
157 0 0 0 0 58 0
158 0 0 0 0 0 78
159 0 0 0 0 52 0
160 0 0 0 0 0 52
161 0 0 0 0 63 0
162 0 0 0 0 0 51
163 0 0 0 0 80 0
164 0 0 0 0 0 81
165 0 0 0 0 58 0
166 0 0 0 0 0 86
167 0 0 0 0 86 0
168 0 0 0 0 0 56
169 0 0 0 0 64 0
170 0 0 0 0 0 81
171 0 0 0 0 64 0
172 0 0 0 0 0 89
173 0 0 0 0 78 0
174 0 0 0 0 0 71
175 0 0 0 0 72 0
176 0 0 0 0 0 96
177 0 0 0 0 75 0
178 0 0 0 0 0 84
179 0 0 0 0 75 0
180 0 0 0 0 0 74
181 0 0 0 0 94 0
182 0 0 0 0 0 80
183 0 0 0 0 97 0
184 0 0 0 0 0 92
185 0 0 0 0 59 0
186 0 0 0 0 0 94
187 0 0 0 0 88 0
188 0 0 0 0 0 85
189 0 0 0 0 89 0
190 0 0 0 0 0 90
191 0 0 0 0 56 0
192 0 0 0 0 0 74
193 0 0 0 0 100 0
194 0 0 0 0 0 84
195 0 0 0 0 55 0
196 0 0 0 0 0 90
197 0 0 0 0 79 0
198 0 0 0 0 0 78
199 0 0 0 0 89 0
200 0 0 0 0 0 58
201 0 0 0 0 74 0
202 0 0 0 0 0 97
203 0 0 0 0 79 0
204 0 0 0 0 0 57
205 0 0 0 0 87 0
206 0 0 0 0 0 53
207 0 0 0 0 94 0
208 0 0 0 0 0 71
209 0 0 0 0 82 0
210 0 0 0 0 0 64
211 0 0 0 0 88 0
212 0 0 0 0 0 77
213 0 0 0 0 64 0
214 0 0 0 0 0 80
215 0 0 0 0 58 0
216 0 0 0 0 0 73
217 0 0 0 0 63 0
218 0 0 0 0 0 84
219 0 0 0 0 60 0
220 0 0 0 0 0 88
221 0 0 0 0 75 0
222 0 0 0 0 0 98
223 0 0 0 0 84 0
224 0 0 0 0 0 86
225 0 0 0 0 80 0
226 0 0 0 0 0 98
227 0 0 0 0 50 0
228 0 0 0 0 0 99
229 0 0 0 0 61 0
230 0 0 0 0 0 50
231 0 0 0 0 61 0
232 0 0 0 0 0 64
233 0 0 0 0 90 0
234 0 0 0 0 0 59
235 0 0 0 0 66 0
236 0 0 0 0 0 70
237 0 0 0 0 73 0
238 0 0 0 0 0 65
239 0 0 0 0 93 0
240 0 0 0 0 0 75
241 0 0 0 0 67 0
242 0 0 0 0 0 69
243 0 0 0 0 87 0
244 0 0 0 0 0 81
245 0 0 0 0 94 0
246 0 0 0 0 0 67
247 0 0 0 0 69 0
248 0 0 0 0 0 71
249 0 0 0 0 82 0
250 0 0 0 0 0 91
251 0 0 0 0 96 0
252 0 0 0 0 0 61
253 0 0 0 0 62 0
254 0 0 0 0 0 65
255 0 0 0 0 95 0
256 0 0 0 0 0 63
257 0 0 0 0 75 0
258 0 0 0 0 0 80
259 0 0 0 0 100 0
260 0 0 0 0 0 60
261 0 0 0 0 100 0
262 0 0 0 0 0 69
263 0 0 0 0 62 0
264 0 0 0 0 0 98
265 0 0 0 0 81 0
266 0 0 0 0 0 58
267 0 0 0 0 58 0
268 0 0 0 0 0 79
269 0 0 0 0 84 0
270 0 0 0 0 0 68
271 0 0 0 0 78 0
272 0 0 0 0 0 83
273 0 0 0 0 51 0
274 0 0 0 0 0 89
275 0 0 0 0 56 0
276 0 0 0 0 0 88
277 0 0 0 0 77 0
278 0 0 0 0 0 57
279 0 0 0 0 86 0
280 0 0 0 0 0 60
281 0 0 0 0 87 0
282 0 0 0 0 0 53
283 0 0 0 0 78 0
284 0 0 0 0 0 56
285 0 0 0 0 95 0
286 0 0 0 0 0 57
287 0 0 0 0 95 0
288 0 0 0 0 0 83
289 0 0 0 0 55 0
290 0 0 0 0 0 71
291 0 0 0 0 86 0
292 0 0 0 0 0 76
293 0 0 0 0 89 0
294 0 0 0 0 0 96
295 0 0 0 0 99 0
296 0 0 0 0 0 88
297 0 0 0 0 67 0
298 0 0 0 0 0 81
299 0 0 0 0 90 0
300 0 0 0 0 0 87
301 0 0 0 0 63 0
302 0 0 0 0 0 78
303 0 0 0 0 57 0
304 0 0 0 0 0 72
305 0 0 0 0 56 0
306 0 0 0 0 0 62
307 0 0 0 0 79 0
308 0 0 0 0 0 100
309 0 0 0 0 58 0
310 0 0 0 0 0 62
311 0 0 0 0 68 0
312 0 0 0 0 0 69
313 0 0 0 0 99 0
314 0 0 0 0 0 59
315 0 0 0 0 91 0
316 0 0 0 0 0 76
317 0 0 0 0 69 0
318 0 0 0 0 0 88
319 0 0 0 0 92 0
320 0 0 0 0 0 72
321 0 0 0 0 90 0
322 0 0 0 0 0 60
323 0 0 0 0 90 0
324 0 0 0 0 0 97
325 0 0 0 0 74 0
326 0 0 0 0 0 97
327 0 0 0 0 78 0
328 0 0 0 0 0 59
329 0 0 0 0 70 0
330 0 0 0 0 0 68
331 0 0 0 0 92 0
332 0 0 0 0 0 93
333 0 0 0 0 56 0
334 0 0 0 0 0 58
335 0 0 0 0 88 0
336 0 0 0 0 0 68
337 0 0 0 0 50 0
338 0 0 0 0 0 77
339 0 0 0 0 86 0
340 0 0 0 0 0 67
341 0 0 0 0 84 0
342 0 0 0 0 0 99
343 0 0 0 0 72 0
344 0 0 0 0 0 73
345 0 0 0 0 86 0
346 0 0 0 0 0 100
347 0 0 0 0 65 0
348 0 0 0 0 0 70
349 0 0 0 0 81 0
350 0 0 0 0 0 71
351 0 0 0 0 96 0
352 0 0 0 0 0 57
353 0 0 0 0 100 0
354 0 0 0 0 0 87
355 0 0 0 0 97 0
356 0 0 0 0 0 74
357 0 0 0 0 51 0
358 0 0 0 0 0 83
359 0 0 0 0 58 0
360 0 0 0 0 0 90
361 0 0 0 0 59 0
362 0 0 0 0 0 57
363 0 0 0 0 98 0
364 0 0 0 0 0 50
365 0 0 0 0 59 0
366 0 0 0 0 0 72
367 0 0 0 0 78 0
368 0 0 0 0 0 99
369 0 0 0 0 55 0
370 0 0 0 0 0 74
371 0 0 0 0 62 0
372 0 0 0 0 0 93
373 0 0 0 0 100 0
374 0 0 0 0 0 78
375 0 0 0 0 56 0
376 0 0 0 0 0 100
377 0 0 0 0 70 0
378 0 0 0 0 0 61
379 0 0 0 0 85 0
380 0 0 0 0 0 92
381 0 0 0 0 74 0
382 0 0 0 0 0 70
383 0 0 0 0 62 0
384 0 0 0 0 0 65
